<number of tasks>
20

<cycle time>
1000

<order strength>
0,3


<task times>
1 266
2 206
3 165
4 203
5 186
6 219
7 90
8 174
9 73
10 160
11 86
12 144
13 114
14 49
15 34
16 77
17 151
18 80
19 281
20 28

<precedence relations>
1,10
2,10
3,8
5,6
5,7
5,9
6,10
7,10
8,11
9,12
10,13
10,14
10,15
10,16
11,18
12,17
13,19
15,20

<end>
